
Log for 'min_Variance' Clone_1 (V12.6.3.0) Fri May 20 13:38:24 2016

Number of nonzeros in lower triangle of Q = 45
Using Approximate Minimum Degree ordering
Total time for automatic ordering = 0.00 sec. (0.00 ticks)
Summary statistics for factor of Q:
  Rows in Factor            = 10
  Integer space required    = 10
  Total non-zeros in factor = 55
  Total FP ops to factor    = 385
Tried aggregator 0 times.
No QP presolve or aggregator reductions.
Presolve time = 0.00 sec. (0.01 ticks)
Number of nonzeros in lower triangle of Q = 45
Using Approximate Minimum Degree ordering
Total time for automatic ordering = 0.00 sec. (0.00 ticks)
Summary statistics for factor of Q:
  Rows in Factor            = 10
  Integer space required    = 10
  Total non-zeros in factor = 55
  Total FP ops to factor    = 385
Presolve time = 0.00 sec. (0.00 ticks)
Barrier time = 0.00 sec. (0.00 ticks)
Barrier time = 0.00 sec. (0.00 ticks)

Dual simplex solved model.


Log for 'max_Return' Clone_1 (V12.6.3.0) Fri May 20 13:38:54 2016


Log for 'Efficient_Frontier' Clone_1 (V12.6.3.0) Fri May 20 13:39:39 2016

Number of nonzeros in lower triangle of Q = 45
Using Approximate Minimum Degree ordering
Total time for automatic ordering = 0.00 sec. (0.00 ticks)
Summary statistics for factor of Q:
  Rows in Factor            = 10
  Integer space required    = 10
  Total non-zeros in factor = 55
  Total FP ops to factor    = 385
Tried aggregator 0 times.
Presolve time = 0.00 sec. (0.01 ticks)

Dual simplex solved model.


Log for 'Efficient_Frontier' Clone_1 (V12.6.3.0) Fri May 20 13:39:39 2016

Number of nonzeros in lower triangle of Q = 45
Using Approximate Minimum Degree ordering
Total time for automatic ordering = 0.00 sec. (0.00 ticks)
Summary statistics for factor of Q:
  Rows in Factor            = 10
  Integer space required    = 10
  Total non-zeros in factor = 55
  Total FP ops to factor    = 385

Dual simplex solved model.


Log for 'Efficient_Frontier' Clone_1 (V12.6.3.0) Fri May 20 13:39:39 2016

Number of nonzeros in lower triangle of Q = 45
Using Approximate Minimum Degree ordering
Total time for automatic ordering = 0.00 sec. (0.00 ticks)
Summary statistics for factor of Q:
  Rows in Factor            = 10
  Integer space required    = 10
  Total non-zeros in factor = 55
  Total FP ops to factor    = 385

Dual simplex solved model.


Log for 'Efficient_Frontier' Clone_1 (V12.6.3.0) Fri May 20 13:39:39 2016

Number of nonzeros in lower triangle of Q = 45
Using Approximate Minimum Degree ordering
Total time for automatic ordering = 0.00 sec. (0.00 ticks)
Summary statistics for factor of Q:
  Rows in Factor            = 10
  Integer space required    = 10
  Total non-zeros in factor = 55
  Total FP ops to factor    = 385

Dual simplex solved model.


Log for 'Efficient_Frontier' Clone_1 (V12.6.3.0) Fri May 20 13:39:39 2016

Number of nonzeros in lower triangle of Q = 45
Using Approximate Minimum Degree ordering
Total time for automatic ordering = 0.00 sec. (0.00 ticks)
Summary statistics for factor of Q:
  Rows in Factor            = 10
  Integer space required    = 10
  Total non-zeros in factor = 55
  Total FP ops to factor    = 385
Total crossover time = 0.00 sec. (0.01 ticks)

Total time on 6 threads = 0.00 sec. (0.02 ticks)

Dual simplex solved model.


Log for 'Efficient_Frontier' Clone_1 (V12.6.3.0) Fri May 20 13:39:39 2016

Number of nonzeros in lower triangle of Q = 45
Using Approximate Minimum Degree ordering
Total time for automatic ordering = 0.00 sec. (0.00 ticks)
Summary statistics for factor of Q:
  Rows in Factor            = 10
  Integer space required    = 10
  Total non-zeros in factor = 55
  Total FP ops to factor    = 385
Total crossover time = 0.00 sec. (0.01 ticks)

Total time on 6 threads = 0.00 sec. (0.01 ticks)

Dual simplex solved model.


Log for 'Efficient_Frontier' Clone_1 (V12.6.3.0) Fri May 20 13:39:39 2016

Number of nonzeros in lower triangle of Q = 45
Using Approximate Minimum Degree ordering
Total time for automatic ordering = 0.00 sec. (0.00 ticks)
Summary statistics for factor of Q:
  Rows in Factor            = 10
  Integer space required    = 10
  Total non-zeros in factor = 55
  Total FP ops to factor    = 385

Dual simplex solved model.


Log for 'Efficient_Frontier' Clone_1 (V12.6.3.0) Fri May 20 13:39:39 2016

Number of nonzeros in lower triangle of Q = 45
Using Approximate Minimum Degree ordering
Total time for automatic ordering = 0.02 sec. (0.00 ticks)
Summary statistics for factor of Q:
  Rows in Factor            = 10
  Integer space required    = 10
  Total non-zeros in factor = 55
  Total FP ops to factor    = 385

Dual simplex solved model.


Log for 'Efficient_Frontier' Clone_1 (V12.6.3.0) Fri May 20 13:39:39 2016

Number of nonzeros in lower triangle of Q = 45
Using Approximate Minimum Degree ordering
Total time for automatic ordering = 0.00 sec. (0.00 ticks)
Summary statistics for factor of Q:
  Rows in Factor            = 10
  Integer space required    = 10
  Total non-zeros in factor = 55
  Total FP ops to factor    = 385
Total crossover time = 0.00 sec. (0.01 ticks)

Total time on 6 threads = 0.00 sec. (0.01 ticks)

Dual simplex solved model.


Log for 'Efficient_Frontier' Clone_1 (V12.6.3.0) Fri May 20 13:39:39 2016

Number of nonzeros in lower triangle of Q = 45
Using Approximate Minimum Degree ordering
Total time for automatic ordering = 0.00 sec. (0.00 ticks)
Summary statistics for factor of Q:
  Rows in Factor            = 10
  Integer space required    = 10
  Total non-zeros in factor = 55
  Total FP ops to factor    = 385
Total crossover time = 0.00 sec. (0.01 ticks)

Total time on 6 threads = 0.00 sec. (0.01 ticks)

Dual simplex solved model.


Log for 'Efficient_Frontier' Clone_1 (V12.6.3.0) Fri May 20 13:39:39 2016

Number of nonzeros in lower triangle of Q = 45
Using Approximate Minimum Degree ordering
Total time for automatic ordering = 0.00 sec. (0.00 ticks)
Summary statistics for factor of Q:
  Rows in Factor            = 10
  Integer space required    = 10
  Total non-zeros in factor = 55
  Total FP ops to factor    = 385

Dual simplex solved model.


Log for 'Efficient_Frontier' Clone_1 (V12.6.3.0) Fri May 20 13:39:39 2016

Number of nonzeros in lower triangle of Q = 45
Using Approximate Minimum Degree ordering
Total time for automatic ordering = 0.00 sec. (0.00 ticks)
Summary statistics for factor of Q:
  Rows in Factor            = 10
  Integer space required    = 10
  Total non-zeros in factor = 55
  Total FP ops to factor    = 385
Total crossover time = 0.00 sec. (0.01 ticks)

Total time on 6 threads = 0.00 sec. (0.01 ticks)

Dual simplex solved model.


Log for 'Efficient_Frontier' Clone_1 (V12.6.3.0) Fri May 20 13:39:39 2016

Number of nonzeros in lower triangle of Q = 45
Using Approximate Minimum Degree ordering
Total time for automatic ordering = 0.00 sec. (0.00 ticks)
Summary statistics for factor of Q:
  Rows in Factor            = 10
  Integer space required    = 10
  Total non-zeros in factor = 55
  Total FP ops to factor    = 385
Total crossover time = 0.00 sec. (0.01 ticks)

Total time on 6 threads = 0.00 sec. (0.01 ticks)

Dual simplex solved model.


Log for 'Efficient_Frontier' Clone_1 (V12.6.3.0) Fri May 20 13:39:39 2016

Number of nonzeros in lower triangle of Q = 45
Using Approximate Minimum Degree ordering
Total time for automatic ordering = 0.00 sec. (0.00 ticks)
Summary statistics for factor of Q:
  Rows in Factor            = 10
  Integer space required    = 10
  Total non-zeros in factor = 55
  Total FP ops to factor    = 385

Dual simplex solved model.


Log for 'Efficient_Frontier' Clone_1 (V12.6.3.0) Fri May 20 13:39:39 2016

Number of nonzeros in lower triangle of Q = 45
Total time for automatic ordering = 0.00 sec. (0.00 ticks)

Dual simplex solved model.


Log for 'Efficient_Frontier' Clone_1 (V12.6.3.0) Fri May 20 13:39:39 2016

Number of nonzeros in lower triangle of Q = 45
Using Approximate Minimum Degree ordering
Total time for automatic ordering = 0.00 sec. (0.00 ticks)
Summary statistics for factor of Q:
  Rows in Factor            = 10
  Integer space required    = 10
  Total non-zeros in factor = 55
  Total FP ops to factor    = 385

Dual simplex solved model.


Log for 'Efficient_Frontier' Clone_1 (V12.6.3.0) Fri May 20 13:39:39 2016

Number of nonzeros in lower triangle of Q = 45
Using Approximate Minimum Degree ordering
Total time for automatic ordering = 0.00 sec. (0.00 ticks)
Summary statistics for factor of Q:
  Rows in Factor            = 10
  Integer space required    = 10
  Total non-zeros in factor = 55
  Total FP ops to factor    = 385

Dual simplex solved model.


Log for 'Efficient_Frontier' Clone_1 (V12.6.3.0) Fri May 20 13:39:39 2016

Number of nonzeros in lower triangle of Q = 45
Using Approximate Minimum Degree ordering
Total time for automatic ordering = 0.00 sec. (0.00 ticks)
Summary statistics for factor of Q:
  Rows in Factor            = 10
  Integer space required    = 10
  Total non-zeros in factor = 55
  Total FP ops to factor    = 385

Dual simplex solved model.


Log for 'Efficient_Frontier' Clone_1 (V12.6.3.0) Fri May 20 13:39:39 2016

Number of nonzeros in lower triangle of Q = 45
Using Approximate Minimum Degree ordering
Total time for automatic ordering = 0.00 sec. (0.00 ticks)
Summary statistics for factor of Q:
  Rows in Factor            = 10
  Integer space required    = 10
  Total non-zeros in factor = 55
  Total FP ops to factor    = 385

Dual simplex solved model.


Log for 'Efficient_Frontier' Clone_1 (V12.6.3.0) Fri May 20 13:39:39 2016

Number of nonzeros in lower triangle of Q = 45
Using Approximate Minimum Degree ordering
Total time for automatic ordering = 0.00 sec. (0.00 ticks)
Summary statistics for factor of Q:
  Rows in Factor            = 10
  Integer space required    = 10
  Total non-zeros in factor = 55
  Total FP ops to factor    = 385

Dual simplex solved model.

